NAME : LPS-n4-m98
COMMENT : (Lartu-Peter-Santi Plot, instance 498 out of 39200. 4 customers.)
TYPE : CVRP
DIMENSION : 4
EDGE_WEIGHT_TYPE : EUC_2D
CAPACITY : 133
NODE_COORD_SECTION
 1 9 17
 2 22 70
 3 55 60
 4 45 19
DEMAND_SECTION
1 0
2 12
3 25
4 126
DEPOT_SECTION
 1
 -1
EOF
